
Gurobi 7.0.2 (win64, Python) logging started 03/23/18 19:01:15


Gurobi 7.0.2 (win64, Python) logging started 03/23/18 19:01:52


Gurobi 7.0.2 (win64, Python) logging started 04/01/18 12:51:58


Gurobi 7.0.2 (win64, Python) logging started 04/01/18 12:52:15


Gurobi 7.0.2 (win64, Python) logging started 04/01/18 12:52:53


Gurobi 7.0.2 (win64, Python) logging started 04/01/18 12:57:19


Gurobi 7.0.2 (win64, Python) logging started 04/01/18 12:57:52


Gurobi 7.0.2 (win64, Python) logging started 04/01/18 12:59:04


Gurobi 7.0.2 (win64, Python) logging started 04/01/18 13:03:22


Gurobi 7.0.2 (win64, Python) logging started 04/01/18 13:47:03


Gurobi 7.0.2 (win64, Python) logging started 04/01/18 13:47:56


Gurobi 7.0.2 (win64, Python) logging started 04/01/18 13:49:04


Gurobi 7.0.2 (win64, Python) logging started 04/01/18 13:50:10


Gurobi 7.0.2 (win64, Python) logging started 04/01/18 13:50:46


Gurobi 7.0.2 (win64, Python) logging started 04/01/18 13:51:35


Gurobi 7.0.2 (win64, Python) logging started 04/01/18 13:52:20


Gurobi 7.0.2 (win64, Python) logging started 04/01/18 13:53:34


Gurobi 7.0.2 (win64, Python) logging started 04/01/18 13:54:52


Gurobi 7.0.2 (win64, Python) logging started 04/01/18 13:55:41


Gurobi 7.0.2 (win64, Python) logging started 04/01/18 13:56:09


Gurobi 7.0.2 (win64, Python) logging started 04/01/18 13:57:34


Gurobi 7.0.2 (win64, Python) logging started 04/01/18 14:01:07


Gurobi 7.0.2 (win64, Python) logging started 04/01/18 14:02:17


Gurobi 7.0.2 (win64, Python) logging started 04/01/18 14:35:26


Gurobi 7.0.2 (win64, Python) logging started 04/01/18 15:01:32


Gurobi 7.0.2 (win64, Python) logging started 04/01/18 15:02:21


Gurobi 7.0.2 (win64, Python) logging started 04/01/18 15:03:02


Gurobi 7.0.2 (win64, Python) logging started 04/01/18 15:04:06


Gurobi 7.0.2 (win64, Python) logging started 04/01/18 15:06:02


Gurobi 7.0.2 (win64, Python) logging started 04/01/18 15:06:48


Gurobi 7.0.2 (win64, Python) logging started 04/01/18 15:07:05


Gurobi 7.0.2 (win64, Python) logging started 04/01/18 15:07:48


Gurobi 7.0.2 (win64, Python) logging started 04/03/18 13:02:41


Gurobi 7.0.2 (win64, Python) logging started 04/03/18 13:22:12


Gurobi 7.0.2 (win64, Python) logging started 04/03/18 13:32:00


Gurobi 7.0.2 (win64, Python) logging started 04/03/18 13:32:21


Gurobi 7.0.2 (win64, Python) logging started 04/03/18 13:32:32


Gurobi 7.0.2 (win64, Python) logging started 04/03/18 14:21:01


Gurobi 7.0.2 (win64, Python) logging started 04/03/18 14:27:36


Gurobi 7.0.2 (win64, Python) logging started 04/03/18 14:31:43


Gurobi 7.0.2 (win64, Python) logging started 04/03/18 14:34:19


Gurobi 7.0.2 (win64, Python) logging started 04/03/18 14:34:57


Gurobi 7.0.2 (win64, Python) logging started 04/03/18 14:37:50


Gurobi 7.0.2 (win64, Python) logging started 04/03/18 14:39:54


Gurobi 7.0.2 (win64, Python) logging started 04/03/18 14:40:54


Gurobi 7.0.2 (win64, Python) logging started 04/03/18 14:45:31


Gurobi 7.0.2 (win64, Python) logging started 04/03/18 14:48:12


Gurobi 7.0.2 (win64, Python) logging started 04/03/18 14:52:37


Gurobi 7.0.2 (win64, Python) logging started 04/03/18 14:56:46


Gurobi 7.0.2 (win64, Python) logging started 04/04/18 19:54:14


Gurobi 7.0.2 (win64, Python) logging started 04/04/18 19:55:13


Gurobi 7.0.2 (win64, Python) logging started 04/05/18 15:22:32


Gurobi 7.0.2 (win64, Python) logging started 04/05/18 16:10:28


Gurobi 7.0.2 (win64, Python) logging started 04/05/18 16:10:49


Gurobi 7.0.2 (win64, Python) logging started 04/05/18 16:11:30


Gurobi 7.0.2 (win64, Python) logging started 04/05/18 16:21:52


Gurobi 7.0.2 (win64, Python) logging started 04/05/18 16:22:00


Gurobi 7.0.2 (win64, Python) logging started 04/05/18 16:22:44


Gurobi 7.0.2 (win64, Python) logging started 04/05/18 16:23:38


Gurobi 7.0.2 (win64, Python) logging started 04/05/18 16:25:05


Gurobi 7.0.2 (win64, Python) logging started 04/05/18 16:25:38


Gurobi 7.0.2 (win64, Python) logging started 04/05/18 16:38:31


Gurobi 7.0.2 (win64, Python) logging started 04/05/18 16:46:56


Gurobi 7.0.2 (win64, Python) logging started 04/06/18 19:19:56


Gurobi 7.0.2 (win64, Python) logging started 04/06/18 19:21:45


Gurobi 7.0.2 (win64, Python) logging started 04/06/18 19:22:25


Gurobi 7.0.2 (win64, Python) logging started 04/09/18 16:31:06


Gurobi 7.0.2 (win64, Python) logging started 04/09/18 16:32:27


Gurobi 7.0.2 (win64, Python) logging started 04/09/18 16:32:48


Gurobi 7.0.2 (win64, Python) logging started 04/09/18 16:33:58


Gurobi 7.0.2 (win64, Python) logging started 04/09/18 16:39:46


Gurobi 7.0.2 (win64, Python) logging started 04/09/18 16:48:20


Gurobi 7.0.2 (win64, Python) logging started 04/09/18 16:53:37


Gurobi 7.0.2 (win64, Python) logging started 04/09/18 17:10:55


Gurobi 7.0.2 (win64, Python) logging started 04/09/18 17:14:13


Gurobi 7.0.2 (win64, Python) logging started 04/09/18 17:14:40


Gurobi 7.0.2 (win64, Python) logging started 04/09/18 17:23:44


Gurobi 7.0.2 (win64, Python) logging started 04/09/18 17:27:44


Gurobi 7.0.2 (win64, Python) logging started 04/09/18 17:32:10


Gurobi 7.0.2 (win64, Python) logging started 04/09/18 18:03:56


Gurobi 7.0.2 (win64, Python) logging started 04/10/18 13:49:48


Gurobi 7.0.2 (win64, Python) logging started 04/11/18 11:42:36


Gurobi 7.0.2 (win64, Python) logging started 04/11/18 11:48:35


Gurobi 7.0.2 (win64, Python) logging started 04/11/18 12:31:05


Gurobi 7.0.2 (win64, Python) logging started 04/11/18 12:32:36


Gurobi 7.0.2 (win64, Python) logging started 04/11/18 12:41:13


Gurobi 7.0.2 (win64, Python) logging started 04/11/18 12:41:49


Gurobi 7.0.2 (win64, Python) logging started 04/11/18 12:44:05


Gurobi 7.0.2 (win64, Python) logging started 04/11/18 12:47:03


Gurobi 7.0.2 (win64, Python) logging started 04/11/18 12:47:20


Gurobi 7.0.2 (win64, Python) logging started 04/11/18 12:47:33


Gurobi 7.0.2 (win64, Python) logging started 04/11/18 12:50:19


Gurobi 7.0.2 (win64, Python) logging started 04/11/18 12:50:31


Gurobi 7.0.2 (win64, Python) logging started 04/11/18 12:50:41


Gurobi 7.0.2 (win64, Python) logging started 04/11/18 12:56:05


Gurobi 7.0.2 (win64, Python) logging started 04/11/18 13:08:57


Gurobi 7.0.2 (win64, Python) logging started 04/11/18 13:09:09


Gurobi 7.0.2 (win64, Python) logging started 04/11/18 13:10:26


Gurobi 7.0.2 (win64, Python) logging started 04/11/18 13:11:19


Gurobi 7.0.2 (win64, Python) logging started 04/11/18 13:11:46


Gurobi 7.0.2 (win64, Python) logging started 04/11/18 13:28:34


Gurobi 7.0.2 (win64, Python) logging started 04/11/18 13:29:24


Gurobi 7.0.2 (win64, Python) logging started 04/11/18 13:36:18


Gurobi 7.0.2 (win64, Python) logging started 04/11/18 13:37:55


Gurobi 7.0.2 (win64, Python) logging started 04/11/18 13:41:38


Gurobi 7.0.2 (win64, Python) logging started 04/11/18 13:42:15


Gurobi 7.0.2 (win64, Python) logging started 04/11/18 13:45:40


Gurobi 7.0.2 (win64, Python) logging started 04/11/18 14:29:58


Gurobi 7.0.2 (win64, Python) logging started 04/11/18 18:49:06


Gurobi 7.0.2 (win64, Python) logging started 04/11/18 18:50:53


Gurobi 7.0.2 (win64, Python) logging started 04/11/18 18:54:21


Gurobi 7.0.2 (win64, Python) logging started 04/11/18 18:55:18


Gurobi 7.0.2 (win64, Python) logging started 04/11/18 18:59:49


Gurobi 7.0.2 (win64, Python) logging started 04/11/18 19:10:16


Gurobi 7.0.2 (win64, Python) logging started 04/11/18 19:11:12


Gurobi 7.0.2 (win64, Python) logging started 04/11/18 19:12:04


Gurobi 7.0.2 (win64, Python) logging started 04/11/18 19:12:20


Gurobi 7.0.2 (win64, Python) logging started 04/11/18 19:13:16


Gurobi 7.0.2 (win64, Python) logging started 04/11/18 20:45:09


Gurobi 7.0.2 (win64, Python) logging started 04/11/18 20:45:38


Gurobi 7.0.2 (win64, Python) logging started 04/11/18 20:45:48


Gurobi 7.0.2 (win64, Python) logging started 04/11/18 20:46:04


Gurobi 7.0.2 (win64, Python) logging started 04/11/18 20:47:25


Gurobi 7.0.2 (win64, Python) logging started 04/11/18 20:47:50


Gurobi 7.0.2 (win64, Python) logging started 04/11/18 20:48:47


Gurobi 7.0.2 (win64, Python) logging started 04/11/18 20:50:20


Gurobi 7.0.2 (win64, Python) logging started 04/11/18 20:52:12


Gurobi 7.0.2 (win64, Python) logging started 04/11/18 20:52:53


Gurobi 7.0.2 (win64, Python) logging started 04/11/18 20:57:16


Gurobi 7.0.2 (win64, Python) logging started 04/11/18 20:57:25


Gurobi 7.0.2 (win64, Python) logging started 04/11/18 20:58:19


Gurobi 7.0.2 (win64, Python) logging started 04/11/18 20:58:37


Gurobi 7.0.2 (win64, Python) logging started 04/11/18 21:02:49


Gurobi 7.0.2 (win64, Python) logging started 04/11/18 21:02:56


Gurobi 7.0.2 (win64, Python) logging started 04/11/18 21:03:16


Gurobi 7.0.2 (win64, Python) logging started 04/11/18 21:03:48


Gurobi 7.0.2 (win64, Python) logging started 04/11/18 22:03:11


Gurobi 7.0.2 (win64, Python) logging started 04/11/18 22:12:09


Gurobi 7.0.2 (win64, Python) logging started 04/12/18 09:41:05


Gurobi 7.0.2 (win64, Python) logging started 04/12/18 09:41:46


Gurobi 7.0.2 (win64, Python) logging started 04/12/18 09:42:28


Gurobi 7.0.2 (win64, Python) logging started 04/12/18 09:42:46


Gurobi 7.0.2 (win64, Python) logging started 04/12/18 09:42:56


Gurobi 7.0.2 (win64, Python) logging started 04/12/18 10:01:09


Gurobi 7.0.2 (win64, Python) logging started 04/12/18 10:04:41


Gurobi 7.0.2 (win64, Python) logging started 04/12/18 10:17:55


Gurobi 7.0.2 (win64, Python) logging started 04/12/18 10:19:32


Gurobi 7.0.2 (win64, Python) logging started 04/12/18 10:23:07


Gurobi 7.0.2 (win64, Python) logging started 04/12/18 10:23:41


Gurobi 7.0.2 (win64, Python) logging started 04/12/18 10:24:25


Gurobi 7.0.2 (win64, Python) logging started 04/12/18 10:26:06


Gurobi 7.0.2 (win64, Python) logging started 04/12/18 10:27:54


Gurobi 7.0.2 (win64, Python) logging started 04/12/18 10:28:18


Gurobi 7.0.2 (win64, Python) logging started 04/12/18 10:31:35


Gurobi 7.0.2 (win64, Python) logging started 04/12/18 10:41:49


Gurobi 7.0.2 (win64, Python) logging started 04/12/18 10:45:20


Gurobi 7.0.2 (win64, Python) logging started 04/12/18 10:46:12


Gurobi 7.0.2 (win64, Python) logging started 04/12/18 10:51:36


Gurobi 7.0.2 (win64, Python) logging started 04/12/18 10:54:16


Gurobi 7.0.2 (win64, Python) logging started 04/12/18 10:55:02


Gurobi 7.0.2 (win64, Python) logging started 04/12/18 10:56:27


Gurobi 7.0.2 (win64, Python) logging started 04/12/18 11:44:36


Gurobi 7.0.2 (win64, Python) logging started 04/12/18 11:45:19


Gurobi 7.0.2 (win64, Python) logging started 04/12/18 11:46:23


Gurobi 7.0.2 (win64, Python) logging started 04/12/18 11:48:19


Gurobi 7.0.2 (win64, Python) logging started 04/12/18 11:50:04


Gurobi 7.0.2 (win64, Python) logging started 04/12/18 12:02:56


Gurobi 7.0.2 (win64, Python) logging started 04/12/18 14:34:54


Gurobi 7.0.2 (win64, Python) logging started 04/12/18 14:35:06


Gurobi 7.0.2 (win64, Python) logging started 04/12/18 16:20:28


Gurobi 7.0.2 (win64, Python) logging started 04/13/18 11:16:40


Gurobi 7.0.2 (win64, Python) logging started 04/13/18 11:23:14


Gurobi 7.0.2 (win64, Python) logging started 04/13/18 11:25:18


Gurobi 7.0.2 (win64, Python) logging started 04/13/18 11:48:24


Gurobi 7.0.2 (win64, Python) logging started 04/13/18 12:41:54


Gurobi 7.0.2 (win64, Python) logging started 04/13/18 13:28:39


Gurobi 7.0.2 (win64, Python) logging started 04/13/18 13:28:50


Gurobi 7.0.2 (win64, Python) logging started 04/13/18 13:29:03


Gurobi 7.0.2 (win64, Python) logging started 04/13/18 13:34:53


Gurobi 7.0.2 (win64, Python) logging started 04/13/18 14:06:16


Gurobi 7.0.2 (win64, Python) logging started 04/13/18 14:06:39


Gurobi 7.0.2 (win64, Python) logging started 04/13/18 14:14:42


Gurobi 7.0.2 (win64, Python) logging started 04/13/18 14:17:30


Gurobi 7.0.2 (win64, Python) logging started 04/13/18 14:21:16


Gurobi 7.0.2 (win64, Python) logging started 04/13/18 14:44:13


Gurobi 7.0.2 (win64, Python) logging started 04/13/18 14:45:19


Gurobi 7.0.2 (win64, Python) logging started 04/13/18 14:46:36


Gurobi 7.0.2 (win64, Python) logging started 04/13/18 14:49:39


Gurobi 7.0.2 (win64, Python) logging started 04/13/18 15:02:58


Gurobi 7.0.2 (win64, Python) logging started 04/13/18 15:09:09


Gurobi 7.0.2 (win64, Python) logging started 04/13/18 15:10:05


Gurobi 7.0.2 (win64, Python) logging started 04/13/18 15:10:32


Gurobi 7.0.2 (win64, Python) logging started 04/13/18 15:10:50


Gurobi 7.0.2 (win64, Python) logging started 04/13/18 15:11:16


Gurobi 7.0.2 (win64, Python) logging started 04/13/18 15:12:41


Gurobi 7.0.2 (win64, Python) logging started 04/13/18 15:13:29


Gurobi 7.0.2 (win64, Python) logging started 04/13/18 15:13:49


Gurobi 7.0.2 (win64, Python) logging started 04/13/18 15:19:24


Gurobi 7.0.2 (win64, Python) logging started 04/13/18 15:30:57


Gurobi 7.0.2 (win64, Python) logging started 04/13/18 16:01:06


Gurobi 7.0.2 (win64, Python) logging started 04/14/18 13:34:44


Gurobi 7.0.2 (win64, Python) logging started 04/14/18 13:36:34


Gurobi 7.0.2 (win64, Python) logging started 04/14/18 13:37:02


Gurobi 7.0.2 (win64, Python) logging started 04/14/18 13:37:45


Gurobi 7.0.2 (win64, Python) logging started 04/14/18 13:40:31


Gurobi 7.0.2 (win64, Python) logging started 04/14/18 13:41:30


Gurobi 7.0.2 (win64, Python) logging started 04/14/18 13:45:07


Gurobi 7.0.2 (win64, Python) logging started 04/14/18 13:45:51


Gurobi 7.0.2 (win64, Python) logging started 04/14/18 13:46:38


Gurobi 7.0.2 (win64, Python) logging started 04/14/18 13:47:11


Gurobi 7.0.2 (win64, Python) logging started 04/14/18 13:47:55


Gurobi 7.0.2 (win64, Python) logging started 04/14/18 13:52:37


Gurobi 7.0.2 (win64, Python) logging started 04/14/18 13:55:28


Gurobi 7.0.2 (win64, Python) logging started 04/14/18 14:02:05


Gurobi 7.0.2 (win64, Python) logging started 04/14/18 14:03:29


Gurobi 7.0.2 (win64, Python) logging started 04/14/18 14:04:29


Gurobi 7.0.2 (win64, Python) logging started 04/14/18 14:07:30


Gurobi 7.0.2 (win64, Python) logging started 04/14/18 14:11:25


Gurobi 7.0.2 (win64, Python) logging started 04/14/18 14:11:54


Gurobi 7.0.2 (win64, Python) logging started 04/14/18 14:13:10


Gurobi 7.0.2 (win64, Python) logging started 04/14/18 14:19:20


Gurobi 7.0.2 (win64, Python) logging started 04/14/18 14:19:53


Gurobi 7.0.2 (win64, Python) logging started 04/14/18 14:22:11


Gurobi 7.0.2 (win64, Python) logging started 04/14/18 14:23:25


Gurobi 7.0.2 (win64, Python) logging started 04/14/18 14:33:56


Gurobi 7.0.2 (win64, Python) logging started 04/14/18 14:36:22


Gurobi 7.0.2 (win64, Python) logging started 04/14/18 14:37:45


Gurobi 7.0.2 (win64, Python) logging started 04/14/18 14:38:00


Gurobi 7.0.2 (win64, Python) logging started 04/14/18 14:38:31


Gurobi 7.0.2 (win64, Python) logging started 04/14/18 14:53:40


Gurobi 7.0.2 (win64, Python) logging started 04/14/18 14:54:12


Gurobi 7.0.2 (win64, Python) logging started 04/14/18 14:55:43


Gurobi 7.0.2 (win64, Python) logging started 04/14/18 14:57:45


Gurobi 7.0.2 (win64, Python) logging started 04/14/18 14:58:54


Gurobi 7.0.2 (win64, Python) logging started 04/14/18 15:01:24


Gurobi 7.0.2 (win64, Python) logging started 04/14/18 15:18:07


Gurobi 7.0.2 (win64, Python) logging started 04/14/18 15:19:41


Gurobi 7.0.2 (win64, Python) logging started 04/14/18 15:21:35


Gurobi 7.0.2 (win64, Python) logging started 04/14/18 15:25:24


Gurobi 7.0.2 (win64, Python) logging started 04/14/18 15:29:27


Gurobi 7.0.2 (win64, Python) logging started 04/14/18 15:31:45


Gurobi 7.0.2 (win64, Python) logging started 04/14/18 15:34:38


Gurobi 7.0.2 (win64, Python) logging started 04/14/18 15:35:26


Gurobi 7.0.2 (win64, Python) logging started 04/14/18 15:42:50


Gurobi 7.0.2 (win64, Python) logging started 04/14/18 16:02:17


Gurobi 7.0.2 (win64, Python) logging started 04/15/18 10:10:11


Gurobi 7.0.2 (win64, Python) logging started 04/15/18 14:21:56


Gurobi 7.0.2 (win64, Python) logging started 04/15/18 14:23:26


Gurobi 7.0.2 (win64, Python) logging started 04/15/18 14:24:51


Gurobi 7.0.2 (win64, Python) logging started 04/15/18 14:31:12


Gurobi 7.0.2 (win64, Python) logging started 04/15/18 14:33:22


Gurobi 7.0.2 (win64, Python) logging started 04/15/18 14:45:54


Gurobi 7.0.2 (win64, Python) logging started 04/15/18 14:49:18


Gurobi 7.0.2 (win64, Python) logging started 04/15/18 15:05:25


Gurobi 7.0.2 (win64, Python) logging started 04/15/18 15:05:47


Gurobi 7.0.2 (win64, Python) logging started 04/15/18 15:06:24


Gurobi 7.0.2 (win64, Python) logging started 04/15/18 15:10:06


Gurobi 7.0.2 (win64, Python) logging started 04/15/18 15:11:14


Gurobi 7.0.2 (win64, Python) logging started 04/15/18 15:12:01


Gurobi 7.0.2 (win64, Python) logging started 04/15/18 15:26:15


Gurobi 7.0.2 (win64, Python) logging started 04/15/18 15:37:37


Gurobi 7.0.2 (win64, Python) logging started 04/15/18 15:50:27


Gurobi 7.0.2 (win64, Python) logging started 04/15/18 15:52:31


Gurobi 7.0.2 (win64, Python) logging started 04/15/18 15:56:24


Gurobi 7.0.2 (win64, Python) logging started 04/15/18 16:03:00


Gurobi 7.0.2 (win64, Python) logging started 04/15/18 16:07:47


Gurobi 7.0.2 (win64, Python) logging started 04/15/18 16:10:38


Gurobi 7.0.2 (win64, Python) logging started 04/15/18 17:23:24


Gurobi 7.0.2 (win64, Python) logging started 04/15/18 17:24:12


Gurobi 7.0.2 (win64, Python) logging started 04/15/18 17:27:57


Gurobi 7.0.2 (win64, Python) logging started 04/15/18 17:28:23


Gurobi 7.0.2 (win64, Python) logging started 04/15/18 17:29:02


Gurobi 7.0.2 (win64, Python) logging started 04/15/18 17:47:50


Gurobi 7.0.2 (win64, Python) logging started 04/15/18 17:54:38


Gurobi 7.0.2 (win64, Python) logging started 04/15/18 17:56:54


Gurobi 7.0.2 (win64, Python) logging started 04/15/18 17:59:16


Gurobi 7.0.2 (win64, Python) logging started 04/15/18 18:00:37


Gurobi 7.0.2 (win64, Python) logging started 04/15/18 18:01:24


Gurobi 7.0.2 (win64, Python) logging started 04/15/18 18:05:00


Gurobi 7.0.2 (win64, Python) logging started 04/15/18 18:05:24


Gurobi 7.0.2 (win64, Python) logging started 04/15/18 18:07:22


Gurobi 7.0.2 (win64, Python) logging started 04/15/18 18:09:46


Gurobi 7.0.2 (win64, Python) logging started 04/15/18 18:26:39


Gurobi 7.0.2 (win64, Python) logging started 04/15/18 18:28:45


Gurobi 7.0.2 (win64, Python) logging started 04/15/18 18:30:56

